NAME: eilA101_20
COMMENT: 824.09
VEHICLE: 8
TIME: 146.1947
DIMENSION: 101
CAPACITY: 200
DELIVERY_SECTION
0 0 0
1 1 10
2 2 2
3 2 2
4 2 2
5 2 1
6 3 10
7 3 2
8 3 1
9 4 10
10 4 2
11 4 2
12 4 2
13 4 2
14 4 1
15 5 20
16 5 2
17 5 2
18 5 2
19 6 2
20 6 1
21 7 2
22 7 2
23 7 1
24 8 2
25 8 2
26 8 2
27 8 2
28 8 1
29 9 10
30 9 2
31 9 2
32 9 2
33 10 10
34 10 2
35 10 2
36 10 2
37 11 10
38 11 2
39 12 10
40 12 2
41 12 2
42 12 2
43 12 2
44 12 1
45 13 20
46 13 2
47 13 1
48 14 20
49 15 2
50 15 2
51 15 2
52 15 2
53 16 10
54 16 2
55 16 2
56 16 2
57 16 2
58 16 1
59 17 2
60 18 10
61 18 2
62 19 10
63 19 2
64 19 2
65 19 2
66 19 1
67 20 2
68 20 2
69 20 2
70 20 2
71 20 1
72 21 10
73 21 1
74 22 10
75 22 2
76 22 2
77 22 2
78 22 2
79 23 20
80 23 2
81 23 2
82 23 2
83 23 2
84 23 1
85 24 2
86 24 1
87 25 2
88 25 2
89 25 2
90 26 10
91 26 2
92 26 2
93 26 2
94 26 1
95 27 10
96 27 2
97 27 2
98 27 2
99 28 10
100 28 2
101 28 2
102 28 2
103 29 2
104 29 2
105 29 2
106 29 2
107 29 1
108 30 20
109 30 1
110 31 20
111 31 2
112 31 2
113 31 2
114 31 1
115 32 20
116 32 2
117 32 1
118 33 10
119 33 1
120 34 10
121 34 2
122 34 2
123 35 2
124 35 2
125 35 2
126 35 2
127 36 2
128 36 2
129 36 1
130 37 2
131 37 2
132 37 2
133 37 2
134 38 10
135 38 2
136 38 2
137 38 2
138 39 20
139 39 10
140 39 1
141 40 2
142 40 2
143 40 2
144 40 2
145 40 1
146 41 2
147 41 2
148 41 1
149 42 2
150 42 2
151 42 1
152 43 2
153 43 2
154 43 2
155 43 1
156 44 10
157 44 2
158 44 2
159 44 2
160 44 2
161 45 10
162 45 2
163 45 2
164 45 2
165 46 1
166 47 20
167 47 2
168 47 2
169 47 2
170 47 1
171 48 20
172 48 10
173 48 2
174 48 2
175 48 2
176 49 20
177 49 10
178 50 10
179 50 2
180 50 1
181 51 10
182 52 2
183 52 2
184 52 2
185 52 2
186 52 1
187 53 10
188 53 2
189 53 2
190 54 10
191 54 2
192 54 2
193 54 2
194 54 2
195 55 2
196 56 2
197 56 2
198 56 2
199 57 2
200 57 2
201 57 2
202 57 1
203 58 10
204 58 2
205 58 2
206 58 2
207 58 2
208 59 20
209 59 2
210 59 2
211 59 2
212 59 2
213 60 2
214 60 1
215 61 10
216 61 2
217 61 1
218 62 10
219 62 2
220 62 2
221 62 2
222 62 2
223 62 1
224 63 10
225 64 2
226 64 2
227 64 2
228 64 2
229 64 1
230 65 20
231 66 20
232 66 2
233 66 2
234 66 1
235 67 20
236 67 2
237 67 2
238 67 1
239 68 20
240 68 10
241 68 2
242 68 2
243 68 2
244 69 2
245 69 2
246 69 2
247 70 2
248 70 2
249 70 1
250 71 10
251 71 2
252 71 2
253 71 1
254 72 20
255 72 2
256 72 2
257 72 1
258 73 2
259 73 2
260 73 2
261 73 2
262 73 1
263 74 2
264 74 2
265 74 2
266 74 2
267 75 10
268 75 2
269 75 2
270 75 2
271 75 2
272 76 10
273 76 2
274 76 1
275 77 10
276 77 2
277 77 2
278 78 2
279 78 1
280 79 20
281 79 2
282 79 1
283 80 2
284 80 2
285 80 2
286 81 20
287 81 2
288 81 2
289 81 2
290 82 10
291 82 2
292 82 2
293 82 2
294 83 10
295 83 1
296 84 2
297 84 2
298 84 2
299 84 1
300 85 40
301 85 1
302 86 20
303 86 10
304 86 2
305 86 2
306 86 1
307 87 20
308 87 2
309 87 2
310 87 2
311 88 2
312 88 2
313 88 2
314 88 2
315 88 1
316 89 10
317 89 2
318 89 2
319 89 1
320 90 2
321 90 1
322 91 1
323 92 2
324 93 20
325 93 2
326 94 20
327 94 2
328 94 2
329 94 2
330 94 1
331 95 20
332 96 10
333 96 1
334 97 10
335 97 2
336 98 10
337 99 2
338 99 2
339 99 2
340 99 2
341 99 1
342 100 10
343 100 2
344 100 2
345 100 2
346 100 1
PICKUP_SECTION
NODE_SECTION
35 35

41 49

35 17

55 45

55 20

15 30

25 30

20 50

10 43

55 60

30 60

20 65

50 35

30 25

15 10

30  5

10 20
 
5 30

20 40

15 60

45 65

45 20

45 10

55  5

65 35

65 20

45 30

35 40

41 37

64 42

40 60

31 52

35 69

53 52

65 55

63 65

 2 60

20 20

 5  5

60 12

40 25

42  7

24 12

23  3

11 14

 6 38

 2 48

 8 56

13 52

 6 68

47 47

49 58

27 43

37 31

57 29

63 23

53 12

32 12

36 26

21 24

17 34

12 24

24 58

27 69

15 77

62 77

49 73

67  5

56 39

37 47

37 56

57 68

47 16

44 17

46 13

49 11

49 42

53 43

61 52

57 48

56 37

55 54

15 47

14 37

11 31

16 22

 4 18

28 18

26 52

26 35

31 67

15 19

22 22

18 24

26 27

25 24

22 27

25 21

19 21

20 26

18 18
DISTANCE_SECTION
DEPOT_SECTION
0
EOF